knapPI_13_20_1000_1
n 20
c 873
z 1716
time 0.00
1,234,114,1
2,39,19,1
3,1053,873,0
4,351,291,0
5,585,485,0
6,78,38,1
7,117,97,0
8,234,194,0
9,312,152,1
10,156,76,1
11,156,76,1
12,273,133,1
13,351,291,0
14,351,291,0
15,312,152,1
16,468,388,0
17,156,76,1
18,585,485,0
19,468,388,0
20,1053,873,0
